NAME : mtspf.pid8853.gtsp
TYPE : ATSP
DIMENSION : 45
EDGE_WEIGHT_TYPE : EXPLICIT
EDGE_WEIGHT_FORMAT : FULL_MATRIX
EDGE_WEIGHT_SECTION
999999 5368709 5368709 5368709 5368709 5368716 5368717 5368718 5368717 5368752 5368751 5368750 5368751 5368752 5368751 5368750 5368751 5368732 5368731 5368730 5368731 5368754 5368753 5368752 5368753 5368722 5368723 5368724 5368723 5368737 5368736 5368737 5368738 5368748 5368747 5368746 5368747 5368734 5368733 5368732 5368733 5368751 5368752 5368751 5368750 
5368709 999999 5368709 5368709 5368709 5368745 5368746 5368747 5368746 5368719 5368718 5368719 5368720 5368739 5368740 5368739 5368738 5368725 5368726 5368727 5368726 5368739 5368738 5368737 5368738 5368753 5368754 5368753 5368752 5368720 5368721 5368720 5368719 5368719 5368718 5368717 5368718 5368721 5368722 5368723 5368722 5368724 5368725 5368724 5368723 
5368709 5368709 999999 5368709 5368709 5368732 5368733 5368734 5368733 5368742 5368741 5368740 5368741 5368760 5368761 5368760 5368759 5368718 5368717 5368716 5368717 5368760 5368759 5368758 5368759 5368738 5368739 5368740 5368739 5368733 5368734 5368733 5368732 5368740 5368739 5368738 5368739 5368722 5368721 5368720 5368721 5368741 5368742 5368741 5368740 
5368709 5368709 5368709 999999 5368709 5368755 5368756 5368757 5368756 5368729 5368728 5368729 5368730 5368725 5368726 5368725 5368724 5368747 5368748 5368749 5368748 5368725 5368724 5368723 5368724 5368761 5368762 5368763 5368762 5368734 5368735 5368734 5368733 5368725 5368726 5368727 5368726 5368743 5368744 5368745 5368744 5368740 5368741 5368740 5368739 
5368709 5368709 5368709 5368709 999999 5368740 5368741 5368742 5368741 5368736 5368735 5368736 5368737 5368726 5368725 5368724 5368725 5368744 5368745 5368746 5368745 5368726 5368725 5368726 5368727 5368744 5368745 5368746 5368745 5368731 5368730 5368731 5368732 5368732 5368731 5368730 5368731 5368740 5368741 5368742 5368741 5368743 5368744 5368743 5368742 
5368709 5368709 5368709 5368709 5368709 999999 0 10737418 10737418 5368754 5368753 5368754 5368755 5368750 5368749 5368748 5368749 5368738 5368737 5368736 5368737 5368752 5368751 5368750 5368751 5368718 5368719 5368718 5368717 5368737 5368736 5368737 5368738 5368748 5368747 5368746 5368747 5368740 5368739 5368740 5368741 5368753 5368754 5368753 5368752 
5368709 5368709 5368709 5368709 5368709 10737418 999999 0 10737418 5368753 5368752 5368753 5368754 5368749 5368748 5368747 5368748 5368737 5368736 5368735 5368736 5368751 5368750 5368749 5368750 5368719 5368720 5368719 5368718 5368736 5368735 5368736 5368737 5368747 5368746 5368745 5368746 5368739 5368738 5368739 5368740 5368752 5368753 5368752 5368751 
5368709 5368709 5368709 5368709 5368709 10737418 10737418 999999 0 5368754 5368753 5368754 5368755 5368750 5368749 5368748 5368749 5368738 5368737 5368736 5368737 5368752 5368751 5368750 5368751 5368718 5368719 5368718 5368717 5368737 5368736 5368737 5368738 5368748 5368747 5368746 5368747 5368740 5368739 5368740 5368741 5368753 5368754 5368753 5368752 
5368709 5368709 5368709 5368709 5368709 0 10737418 10737418 999999 5368755 5368754 5368755 5368756 5368751 5368750 5368749 5368750 5368739 5368738 5368737 5368738 5368753 5368752 5368751 5368752 5368717 5368718 5368717 5368716 5368738 5368737 5368738 5368739 5368749 5368748 5368747 5368748 5368741 5368740 5368741 5368742 5368754 5368755 5368754 5368753 
5368709 5368709 5368709 5368709 5368709 5368754 5368755 5368756 5368755 999999 0 10737418 10737418 5368736 5368737 5368736 5368735 5368734 5368735 5368736 5368735 5368736 5368735 5368734 5368735 5368762 5368763 5368762 5368761 5368729 5368730 5368729 5368728 5368718 5368719 5368720 5368719 5368730 5368731 5368732 5368731 5368721 5368722 5368721 5368720 
5368709 5368709 5368709 5368709 5368709 5368753 5368754 5368755 5368754 10737418 999999 0 10737418 5368735 5368736 5368735 5368734 5368735 5368736 5368737 5368736 5368735 5368734 5368733 5368734 5368761 5368762 5368761 5368760 5368728 5368729 5368728 5368727 5368717 5368718 5368719 5368718 5368731 5368732 5368733 5368732 5368722 5368723 5368722 5368721 
5368709 5368709 5368709 5368709 5368709 5368752 5368753 5368754 5368753 10737418 10737418 999999 0 5368734 5368735 5368734 5368733 5368734 5368735 5368736 5368735 5368734 5368733 5368732 5368733 5368760 5368761 5368760 5368759 5368727 5368728 5368727 5368726 5368716 5368717 5368718 5368717 5368730 5368731 5368732 5368731 5368721 5368722 5368721 5368720 
5368709 5368709 5368709 5368709 5368709 5368753 5368754 5368755 5368754 0 10737418 10737418 999999 5368735 5368736 5368735 5368734 5368733 5368734 5368735 5368734 5368735 5368734 5368733 5368734 5368761 5368762 5368761 5368760 5368728 5368729 5368728 5368727 5368717 5368718 5368719 5368718 5368729 5368730 5368731 5368730 5368720 5368721 5368720 5368719 
5368709 5368709 5368709 5368709 5368709 5368748 5368749 5368750 5368749 5368734 5368733 5368734 5368735 999999 0 10737418 10737418 5368752 5368753 5368754 5368753 5368714 5368713 5368712 5368713 5368752 5368753 5368754 5368753 5368737 5368738 5368739 5368738 5368730 5368731 5368732 5368731 5368748 5368749 5368750 5368749 5368745 5368746 5368745 5368744 
5368709 5368709 5368709 5368709 5368709 5368749 5368750 5368751 5368750 5368735 5368734 5368735 5368736 10737418 999999 0 10737418 5368753 5368754 5368755 5368754 5368713 5368712 5368713 5368714 5368753 5368754 5368755 5368754 5368738 5368739 5368740 5368739 5368731 5368732 5368733 5368732 5368749 5368750 5368751 5368750 5368746 5368747 5368746 5368745 
5368709 5368709 5368709 5368709 5368709 5368748 5368749 5368750 5368749 5368736 5368735 5368736 5368737 10737418 10737418 999999 0 5368754 5368755 5368756 5368755 5368714 5368713 5368714 5368715 5368752 5368753 5368754 5368753 5368739 5368740 5368741 5368740 5368732 5368733 5368734 5368733 5368750 5368751 5368752 5368751 5368747 5368748 5368747 5368746 
5368709 5368709 5368709 5368709 5368709 5368747 5368748 5368749 5368748 5368735 5368734 5368735 5368736 0 10737418 10737418 999999 5368753 5368754 5368755 5368754 5368715 5368714 5368713 5368714 5368751 5368752 5368753 5368752 5368738 5368739 5368740 5368739 5368731 5368732 5368733 5368732 5368749 5368750 5368751 5368750 5368746 5368747 5368746 5368745 
5368709 5368709 5368709 5368709 5368709 5368736 5368737 5368738 5368737 5368736 5368735 5368734 5368735 5368754 5368755 5368754 5368753 999999 0 10737418 10737418 5368754 5368753 5368752 5368753 5368742 5368743 5368744 5368743 5368727 5368728 5368727 5368726 5368734 5368733 5368732 5368733 5368716 5368715 5368714 5368715 5368735 5368736 5368735 5368734 
5368709 5368709 5368709 5368709 5368709 5368737 5368738 5368739 5368738 5368735 5368734 5368733 5368734 5368753 5368754 5368753 5368752 10737418 999999 0 10737418 5368753 5368752 5368751 5368752 5368743 5368744 5368745 5368744 5368726 5368727 5368726 5368725 5368733 5368732 5368731 5368732 5368715 5368714 5368713 5368714 5368734 5368735 5368734 5368733 
5368709 5368709 5368709 5368709 5368709 5368736 5368737 5368738 5368737 5368736 5368735 5368734 5368735 5368754 5368755 5368754 5368753 10737418 10737418 999999 0 5368754 5368753 5368752 5368753 5368742 5368743 5368744 5368743 5368727 5368728 5368727 5368726 5368734 5368733 5368732 5368733 5368716 5368715 5368714 5368715 5368735 5368736 5368735 5368734 
5368709 5368709 5368709 5368709 5368709 5368735 5368736 5368737 5368736 5368737 5368736 5368735 5368736 5368755 5368756 5368755 5368754 0 10737418 10737418 999999 5368755 5368754 5368753 5368754 5368741 5368742 5368743 5368742 5368728 5368729 5368728 5368727 5368735 5368734 5368733 5368734 5368717 5368716 5368715 5368716 5368736 5368737 5368736 5368735 
5368709 5368709 5368709 5368709 5368709 5368750 5368751 5368752 5368751 5368734 5368733 5368734 5368735 5368714 5368715 5368714 5368713 5368752 5368753 5368754 5368753 999999 0 10737418 10737418 5368754 5368755 5368756 5368755 5368737 5368738 5368739 5368738 5368730 5368731 5368732 5368731 5368748 5368749 5368750 5368749 5368745 5368746 5368745 5368744 
5368709 5368709 5368709 5368709 5368709 5368751 5368752 5368753 5368752 5368735 5368734 5368735 5368736 5368713 5368714 5368715 5368714 5368753 5368754 5368755 5368754 10737418 999999 0 10737418 5368755 5368756 5368757 5368756 5368738 5368739 5368740 5368739 5368731 5368732 5368733 5368732 5368749 5368750 5368751 5368750 5368746 5368747 5368746 5368745 
5368709 5368709 5368709 5368709 5368709 5368750 5368751 5368752 5368751 5368734 5368733 5368734 5368735 5368712 5368713 5368714 5368713 5368752 5368753 5368754 5368753 10737418 10737418 999999 0 5368754 5368755 5368756 5368755 5368737 5368738 5368739 5368738 5368730 5368731 5368732 5368731 5368748 5368749 5368750 5368749 5368745 5368746 5368745 5368744 
5368709 5368709 5368709 5368709 5368709 5368749 5368750 5368751 5368750 5368733 5368732 5368733 5368734 5368713 5368714 5368713 5368712 5368751 5368752 5368753 5368752 0 10737418 10737418 999999 5368753 5368754 5368755 5368754 5368736 5368737 5368738 5368737 5368729 5368730 5368731 5368730 5368747 5368748 5368749 5368748 5368744 5368745 5368744 5368743 
5368709 5368709 5368709 5368709 5368709 5368718 5368717 5368716 5368717 5368760 5368759 5368760 5368761 5368754 5368753 5368752 5368753 5368744 5368743 5368742 5368743 5368756 5368755 5368754 5368755 999999 0 10737418 10737418 5368743 5368742 5368743 5368744 5368754 5368753 5368752 5368753 5368746 5368745 5368746 5368747 5368759 5368760 5368759 5368758 
5368709 5368709 5368709 5368709 5368709 5368719 5368718 5368717 5368718 5368761 5368760 5368761 5368762 5368753 5368752 5368751 5368752 5368743 5368742 5368741 5368742 5368755 5368754 5368753 5368754 10737418 999999 0 10737418 5368744 5368743 5368744 5368745 5368755 5368754 5368753 5368754 5368747 5368746 5368745 5368746 5368760 5368761 5368760 5368759 
5368709 5368709 5368709 5368709 5368709 5368720 5368719 5368718 5368719 5368762 5368761 5368762 5368763 5368754 5368753 5368752 5368753 5368744 5368743 5368742 5368743 5368756 5368755 5368754 5368755 10737418 10737418 999999 0 5368745 5368744 5368745 5368746 5368756 5368755 5368754 5368755 5368748 5368747 5368746 5368747 5368761 5368762 5368761 5368760 
5368709 5368709 5368709 5368709 5368709 5368719 5368718 5368717 5368718 5368761 5368760 5368761 5368762 5368755 5368754 5368753 5368754 5368745 5368744 5368743 5368744 5368757 5368756 5368755 5368756 0 10737418 10737418 999999 5368744 5368743 5368744 5368745 5368755 5368754 5368753 5368754 5368747 5368746 5368747 5368748 5368760 5368761 5368760 5368759 
5368709 5368709 5368709 5368709 5368709 5368737 5368738 5368739 5368738 5368727 5368726 5368727 5368728 5368739 5368740 5368739 5368738 5368725 5368726 5368727 5368726 5368739 5368738 5368737 5368738 5368745 5368746 5368745 5368744 999999 0 10737418 10737418 5368721 5368720 5368719 5368720 5368721 5368722 5368723 5368722 5368728 5368729 5368728 5368727 
5368709 5368709 5368709 5368709 5368709 5368736 5368737 5368738 5368737 5368728 5368727 5368728 5368729 5368738 5368739 5368738 5368737 5368726 5368727 5368728 5368727 5368738 5368737 5368736 5368737 5368744 5368745 5368744 5368743 10737418 999999 0 10737418 5368722 5368721 5368720 5368721 5368722 5368723 5368724 5368723 5368727 5368728 5368727 5368726 
5368709 5368709 5368709 5368709 5368709 5368735 5368736 5368737 5368736 5368729 5368728 5368729 5368730 5368739 5368740 5368739 5368738 5368727 5368728 5368729 5368728 5368739 5368738 5368737 5368738 5368743 5368744 5368743 5368742 10737418 10737418 999999 0 5368723 5368722 5368721 5368722 5368723 5368724 5368725 5368724 5368728 5368729 5368728 5368727 
5368709 5368709 5368709 5368709 5368709 5368736 5368737 5368738 5368737 5368728 5368727 5368728 5368729 5368740 5368741 5368740 5368739 5368726 5368727 5368728 5368727 5368740 5368739 5368738 5368739 5368744 5368745 5368744 5368743 0 10737418 10737418 999999 5368722 5368721 5368720 5368721 5368722 5368723 5368724 5368723 5368729 5368730 5368729 5368728 
5368709 5368709 5368709 5368709 5368709 5368746 5368747 5368748 5368747 5368718 5368717 5368718 5368719 5368732 5368733 5368732 5368731 5368732 5368733 5368734 5368733 5368732 5368731 5368730 5368731 5368754 5368755 5368754 5368753 5368721 5368722 5368721 5368720 999999 0 10737418 10737418 5368728 5368729 5368730 5368729 5368727 5368728 5368727 5368726 
5368709 5368709 5368709 5368709 5368709 5368747 5368748 5368749 5368748 5368717 5368716 5368717 5368718 5368731 5368732 5368731 5368730 5368733 5368734 5368735 5368734 5368731 5368730 5368729 5368730 5368755 5368756 5368755 5368754 5368722 5368723 5368722 5368721 10737418 999999 0 10737418 5368729 5368730 5368731 5368730 5368726 5368727 5368726 5368725 
5368709 5368709 5368709 5368709 5368709 5368746 5368747 5368748 5368747 5368718 5368717 5368718 5368719 5368732 5368733 5368732 5368731 5368732 5368733 5368734 5368733 5368732 5368731 5368730 5368731 5368754 5368755 5368754 5368753 5368721 5368722 5368721 5368720 10737418 10737418 999999 0 5368728 5368729 5368730 5368729 5368727 5368728 5368727 5368726 
5368709 5368709 5368709 5368709 5368709 5368745 5368746 5368747 5368746 5368719 5368718 5368719 5368720 5368733 5368734 5368733 5368732 5368731 5368732 5368733 5368732 5368733 5368732 5368731 5368732 5368753 5368754 5368753 5368752 5368720 5368721 5368720 5368719 0 10737418 10737418 999999 5368727 5368728 5368729 5368728 5368726 5368727 5368726 5368725 
5368709 5368709 5368709 5368709 5368709 5368740 5368741 5368742 5368741 5368732 5368731 5368730 5368731 5368750 5368751 5368750 5368749 5368714 5368715 5368716 5368715 5368750 5368749 5368748 5368749 5368746 5368747 5368748 5368747 5368723 5368724 5368723 5368722 5368730 5368729 5368728 5368729 999999 0 10737418 10737418 5368731 5368732 5368731 5368730 
5368709 5368709 5368709 5368709 5368709 5368739 5368740 5368741 5368740 5368731 5368730 5368729 5368730 5368749 5368750 5368749 5368748 5368715 5368716 5368717 5368716 5368749 5368748 5368747 5368748 5368747 5368748 5368747 5368746 5368722 5368723 5368722 5368721 5368729 5368728 5368727 5368728 10737418 999999 0 10737418 5368730 5368731 5368730 5368729 
5368709 5368709 5368709 5368709 5368709 5368738 5368739 5368740 5368739 5368732 5368731 5368730 5368731 5368750 5368751 5368750 5368749 5368714 5368715 5368716 5368715 5368750 5368749 5368748 5368749 5368746 5368747 5368746 5368745 5368723 5368724 5368723 5368722 5368730 5368729 5368728 5368729 10737418 10737418 999999 0 5368731 5368732 5368731 5368730 
5368709 5368709 5368709 5368709 5368709 5368739 5368740 5368741 5368740 5368733 5368732 5368731 5368732 5368751 5368752 5368751 5368750 5368713 5368714 5368715 5368714 5368751 5368750 5368749 5368750 5368745 5368746 5368747 5368746 5368724 5368725 5368724 5368723 5368731 5368730 5368729 5368730 0 10737418 10737418 999999 5368732 5368733 5368732 5368731 
5368709 5368709 5368709 5368709 5368709 5368751 5368752 5368753 5368752 5368721 5368720 5368719 5368720 5368745 5368746 5368745 5368744 5368733 5368734 5368735 5368734 5368745 5368744 5368743 5368744 5368759 5368760 5368759 5368758 5368726 5368727 5368728 5368727 5368725 5368726 5368725 5368726 5368729 5368730 5368731 5368730 999999 0 10737418 10737418 
5368709 5368709 5368709 5368709 5368709 5368752 5368753 5368754 5368753 5368722 5368721 5368720 5368721 5368746 5368747 5368746 5368745 5368734 5368735 5368736 5368735 5368746 5368745 5368744 5368745 5368760 5368761 5368760 5368759 5368727 5368728 5368729 5368728 5368726 5368727 5368726 5368727 5368730 5368731 5368732 5368731 10737418 999999 0 10737418 
5368709 5368709 5368709 5368709 5368709 5368753 5368754 5368755 5368754 5368723 5368722 5368721 5368722 5368747 5368748 5368747 5368746 5368735 5368736 5368737 5368736 5368747 5368746 5368745 5368746 5368761 5368762 5368761 5368760 5368728 5368729 5368730 5368729 5368727 5368728 5368727 5368728 5368731 5368732 5368733 5368732 10737418 10737418 999999 0 
5368709 5368709 5368709 5368709 5368709 5368752 5368753 5368754 5368753 5368722 5368721 5368720 5368721 5368746 5368747 5368746 5368745 5368734 5368735 5368736 5368735 5368746 5368745 5368744 5368745 5368760 5368761 5368760 5368759 5368727 5368728 5368729 5368728 5368726 5368727 5368726 5368727 5368730 5368731 5368732 5368731 0 10737418 10737418 999999 
EOF
